Gurobi Optimizer version 9.1.2 build v9.1.2rc0 (linux64)
Thread count: 36 physical cores, 72 logical processors, using up to 32 threads
Optimize a model with 12 rows, 57 columns and 590 nonzeros
Model fingerprint: 0xf32eec78
Model has 47 quadratic constraints
Coefficient statistics:
  Matrix range     [2e-05, 3e+00]
  QMatrix range    [1e+00, 1e+00]
  QLMatrix range   [1e+00, 1e+00]
  Objective range  [8e-03, 7e-01]
  Bounds range     [1e+00, 1e+00]
  RHS range        [1e+00, 1e+00]
Presolve removed 9 rows and 0 columns

Continuous model is non-convex -- solving as a MIP.

Presolve removed 9 rows and 0 columns
Presolve time: 0.00s
Presolved: 189 rows, 57 columns, 443 nonzeros
Presolved model has 47 bilinear constraint(s)
Variable types: 57 continuous, 0 integer (0 binary)

Root relaxation: objective -1.743721e+00, 44 iterations, 0.00 seconds

    Nodes    |    Current Node    |     Objective Bounds      |     Work
 Expl Unexpl |  Obj  Depth IntInf | Incumbent    BestBd   Gap | It/Node Time

     0     0   -1.74372    0   38          -   -1.74372      -     -    0s
H    0     0                       0.6147548   -1.74372   384%     -    0s
     0     0   -1.64739    0    1    0.61475   -1.64739   368%     -    0s
H    0     0                      -1.6450460   -1.64739  0.14%     -    0s
     0     0     cutoff    0        -1.64505   -1.64505  0.00%     -    0s

Cutting planes:
  RLT: 25
  BQP: 3

Explored 1 nodes (76 simplex iterations) in 0.01 seconds
Thread count was 32 (of 72 available processors)

Solution count 2: -1.64505 0.614755 
No other solutions better than -1.64505

Optimal solution found (tolerance 1.00e-04)
Best objective -1.645045978473e+00, best bound -1.645045978473e+00, gap 0.0000%

User-callback calls 78, time in user-callback 0.00 sec
Gurobi Optimizer version 9.1.2 build v9.1.2rc0 (linux64)
Thread count: 36 physical cores, 72 logical processors, using up to 32 threads
Optimize a model with 24 rows, 125 columns and 2580 nonzeros
Model fingerprint: 0x59d590f4
Model has 105 quadratic constraints
Coefficient statistics:
  Matrix range     [7e-06, 5e+01]
  QMatrix range    [1e+00, 1e+00]
  QLMatrix range   [1e+00, 1e+00]
  Objective range  [1e-02, 2e+00]
  Bounds range     [1e+00, 1e+00]
  RHS range        [1e+00, 1e+00]
Presolve removed 11 rows and 0 columns

Continuous model is non-convex -- solving as a MIP.

Presolve removed 11 rows and 0 columns
Presolve time: 0.00s
Presolved: 428 rows, 125 columns, 2018 nonzeros
Presolved model has 105 bilinear constraint(s)
Variable types: 125 continuous, 0 integer (0 binary)

Root relaxation: objective -7.862996e+00, 157 iterations, 0.00 seconds

    Nodes    |    Current Node    |     Objective Bounds      |     Work
 Expl Unexpl |  Obj  Depth IntInf | Incumbent    BestBd   Gap | It/Node Time

     0     0   -7.86300    0   75          -   -7.86300      -     -    0s
H    0     0                      -0.3622215   -7.86300  2071%     -    0s
     0     0   -5.90141    0   83   -0.36222   -5.90141  1529%     -    0s
H    0     0                      -1.4085219   -5.90141   319%     -    0s
     0     0   -5.88283    0   83   -1.40852   -5.88283   318%     -    0s
     0     0   -5.65311    0   61   -1.40852   -5.65311   301%     -    0s
H    0     0                      -2.3626968   -5.65311   139%     -    0s
     0     0   -5.64519    0   61   -2.36270   -5.64519   139%     -    0s
     0     0   -5.54890    0   53   -2.36270   -5.54890   135%     -    0s
H    0     0                      -2.5245263   -5.54890   120%     -    0s
     0     0   -5.54626    0   53   -2.52453   -5.54626   120%     -    0s
     0     0   -5.53639    0   53   -2.52453   -5.53639   119%     -    0s
     0     0   -5.53464    0   53   -2.52453   -5.53464   119%     -    0s
     0     0   -5.52887    0   53   -2.52453   -5.52887   119%     -    0s
H    0     0                      -2.6113375   -5.52887   112%     -    0s
     0     0   -5.52849    0   53   -2.61134   -5.52849   112%     -    0s
     0     0   -5.52815    0   53   -2.61134   -5.52815   112%     -    0s
H    0     0                      -4.1169299   -5.52815  34.3%     -    0s
H    0     0                      -4.2847476   -5.52815  29.0%     -    0s
H    0     0                      -4.3255400   -5.52815  27.8%     -    0s
H    0     0                      -4.3297664   -5.52815  27.7%     -    0s
H    0     0                      -4.3580628   -5.52815  26.8%     -    0s
     0     2   -5.52815    0   53   -4.35806   -5.52815  26.8%     -    0s
*  320   208              13      -4.3581271   -5.01417  15.1%  30.4    0s
*  385   278              13      -4.3581647   -5.01417  15.1%  27.7    0s
*  472   278              17      -4.3590817   -5.01417  15.0%  25.1    0s
*  523   354              21      -4.3646730   -4.98594  14.2%  23.7    0s
*  609   448              21      -4.4497314   -4.98594  12.1%  21.8    0s
*  657   448              18      -4.5239175   -4.98594  10.2%  20.9    0s
*  751   470              18      -4.5312124   -4.87054  7.49%  19.5    0s
*  939   594              19      -4.5314404   -4.87054  7.48%  17.6    0s
*  989   594              18      -4.5825258   -4.87054  6.29%  17.4    0s
* 1136   692              34      -4.5855597   -4.87054  6.21%  16.5    0s
* 1155   692              21      -4.6150827   -4.87054  5.54%  16.3    0s
* 1235   692              23      -4.6216701   -4.87054  5.38%  15.6    0s
* 1275   692              22      -4.6280309   -4.87054  5.24%  15.3    0s
* 1314   818              17      -4.6648635   -4.80399  2.98%  15.1    0s
* 1315   818              17      -4.6648750   -4.80399  2.98%  15.1    0s
* 1320   818              23      -4.7081819   -4.80399  2.03%  15.0    0s
* 1321   818              23      -4.7082891   -4.80399  2.03%  15.0    0s
* 1874   204              20      -4.7085043   -4.71202  0.07%  11.4    0s

Cutting planes:
  RLT: 48
  BQP: 5
  PSD: 39

Explored 2239 nodes (22031 simplex iterations) in 0.56 seconds
Thread count was 32 (of 72 available processors)

Solution count 10: -4.7085 -4.70829 -4.70818 ... -4.58253

Optimal solution found (tolerance 1.00e-04)
Best objective -4.708504311439e+00, best bound -4.708677093950e+00, gap 0.0037%

User-callback calls 4769, time in user-callback 0.00 sec



objective value: -4.70850431143871
objective bound: -4.708677093950481
x_opt: [1.0, 0.0, 1.0, 0.0, 0.20638994664896476, 0.0, 1.0, 1.0, 0.4442888783135401, 0.0, 0.0, 0.0, 0.8099909917013328, 0.0, 0.4557275154261461, 0.32324579454345037, 0.0, 0.0, 0.0, 0.0]
GUROBI solution time: 0.5635120868682861




